c SAT Generator for power-law distributed variable frequencies
c -g u -v 20 -c 91 -k 3 -p 2.750000 -b 3.200000 -f /home/schmidt/Devel/ni-kop-sat/data/ensemble/ruf20-91/ruf20-91-757 -u 1 -U 1 -s 3610207108
p cnf 20 91
-11 17 19 0
-2 -3 -16 0
-6 -12 -20 0
6 -13 16 0
7 -14 -20 0
4 5 15 0
2 -3 -5 0
-9 15 -17 0
-7 -8 -10 0
2 -4 -7 0
-2 -4 -5 0
-8 10 14 0
4 -17 18 0
8 -10 18 0
-1 -5 -17 0
2 -3 -11 0
9 13 -18 0
-6 -7 15 0
-6 -7 12 0
-9 16 -19 0
5 -6 -12 0
5 -13 15 0
1 15 16 0
-5 -18 20 0
2 -4 20 0
11 -17 19 0
-6 -11 17 0
-11 16 17 0
12 -14 17 0
-7 -10 -15 0
-14 15 16 0
-3 4 -8 0
2 -11 19 0
1 -3 -17 0
-10 -15 -18 0
2 11 15 0
8 13 -17 0
5 -12 -19 0
4 5 -19 0
-5 12 15 0
-2 -3 19 0
-4 15 -18 0
-10 -14 -15 0
-6 8 16 0
1 -15 16 0
9 10 14 0
-1 -16 20 0
-5 -6 19 0
10 -11 18 0
7 -12 -16 0
6 -9 12 0
9 12 20 0
-9 -13 16 0
6 -12 -19 0
-4 -9 10 0
7 -19 20 0
9 15 17 0
8 11 -20 0
9 -16 19 0
-1 -9 10 0
4 -12 -15 0
2 6 15 0
-8 10 18 0
-14 -17 -18 0
6 -14 -18 0
-5 10 -14 0
-5 -12 -19 0
-1 -10 -12 0
7 11 -12 0
2 -6 11 0
-11 -12 -18 0
13 19 20 0
-2 6 16 0
-2 18 20 0
-2 8 11 0
-4 -5 17 0
8 -10 20 0
5 -7 19 0
-9 14 -18 0
-4 5 14 0
-1 -6 20 0
10 11 -18 0
2 6 12 0
-4 -7 11 0
-14 15 20 0
4 5 -18 0
1 -11 -13 0
1 -6 15 0
7 -14 -15 0
4 6 -20 0
-6 -9 -14 0
